100 500 10 200 10 100
32 41
62 79
53 180
10 113
38 130
40 164
11 31
90 57
63 196
29 100
88 17
81 22
45 74
58 20
88 73
91 118
23 103
46 52
85 143
49 146
49 31
44 37
80 173
57 185
42 112
92 101
12 16
13 49
93 97
51 142
88 161
16 129
100 68
31 158
16 148
60 94
49 55
58 65
44 27
41 17
44 146
76 70
21 87
47 76
56 13
46 178
100 89
62 71
59 99
10 147
15 187
36 36
71 196
54 102
52 153
99 185
71 61
50 93
16 199
48 133
92 189
22 18
90 60
54 45
73 163
29 38
67 66
50 11
39 190
97 117
78 34
30 83
31 190
83 66
20 169
16 42
68 165
19 56
19 164
22 16
70 117
77 97
50 143
28 77
73 24
76 117
72 129
15 190
83 30
47 128
35 110
21 169
51 32
67 111
47 150
59 135
36 196
97 61
15 142
34 113
